log/npfs-ilp/npfs-10_results_10t/ilp-VFR600_60_1.out
Error number: 10001
Message: Out of memory
