data/results/npfs-ilp/npfs-10_results_10t/ilp-VFR600_60_1.stdout
VFR600_60_1.txt
Set parameter Username
Academic license - for non-commercial use only - expires 2023-04-30
Set parameter Threads to value 8
Set parameter TimeLimit to value 36000
Gurobi Optimizer version 9.5.1 build v9.5.1rc2 (linux64)
Thread count: 4 physical cores, 8 logical processors, using up to 8 threads
Optimize a model with 32382000 rows, 21636001 columns and 86328000 nonzeros
Model fingerprint: 0x4227d695
Variable types: 36001 continuous, 21600000 integer (21600000 binary)
Coefficient statistics:
  Matrix range     [1e+00, 2e+06]
  Objective range  [1e+00, 1e+00]
  Bounds range     [1e+00, 1e+00]
  RHS range        [1e+00, 2e+06]
Presolve removed 0 rows and 0 columns (presolve time = 6s) ...
Presolve removed 0 rows and 36000 columns (presolve time = 11s) ...
Presolve removed 10782000 rows and 10818000 columns (presolve time = 16s) ...
Presolve removed 10782000 rows and 10818000 columns (presolve time = 20s) ...
Presolve removed 10782000 rows and 10818000 columns (presolve time = 28s) ...
Presolve removed 10782000 rows and 10818000 columns (presolve time = 30s) ...
Presolve removed 10782000 rows and 10818000 columns (presolve time = 36s) ...
Presolve removed 10782000 rows and 10818000 columns (presolve time = 40s) ...
Presolve removed 10782000 rows and 10818000 columns (presolve time = 47s) ...
Presolve removed 10782000 rows and 10818000 columns (presolve time = 50s) ...
Presolve removed 10782000 rows and 10818000 columns (presolve time = 57s) ...
Presolve removed 10782000 rows and 10818000 columns (presolve time = 61s) ...
Presolve removed 10782000 rows and 10818000 columns (presolve time = 65s) ...
Presolve removed 10782000 rows and 10818000 columns (presolve time = 70s) ...
Presolve removed 10782000 rows and 10818000 columns (presolve time = 75s) ...
Presolve removed 10782000 rows and 10818000 columns (presolve time = 80s) ...
Presolve removed 10782000 rows and 10818000 columns (presolve time = 85s) ...
Presolve removed 10782000 rows and 10818000 columns (presolve time = 90s) ...
Presolve removed 10782000 rows and 10818000 columns (presolve time = 99s) ...
Presolve removed 10782000 rows and 10818000 columns (presolve time = 101s) ...
Presolve removed 10782000 rows and 10818000 columns (presolve time = 105s) ...
Presolve removed 10782000 rows and 10818000 columns (presolve time = 110s) ...
Presolve removed 10782000 rows and 10818000 columns (presolve time = 115s) ...
Presolve removed 10782000 rows and 10818000 columns (presolve time = 198s) ...
Presolve removed 10782000 rows and 10818000 columns (presolve time = 237s) ...
Presolve removed 10782000 rows and 10818000 columns (presolve time = 243s) ...
Presolve removed 10782000 rows and 10818000 columns (presolve time = 248s) ...
Presolve removed 10782000 rows and 10818000 columns (presolve time = 262s) ...
Presolve removed 10782000 rows and 10818000 columns
Presolve time: 261.70s
Presolved: 21600000 rows, 10818001 columns, 64764000 nonzeros
Variable types: 36001 continuous, 10782000 integer (10782000 binary)
Found heuristic solution: objective 42491.000000

Deterministic concurrent LP optimizer: primal simplex, dual simplex, and barrier
Showing barrier log only...

Root barrier log...

Elapsed ordering time = 5s
Ordering time: 5.44s

Barrier statistics:
 Dense cols : 36001
 AA' NZ     : 2.164e+07
 Factor NZ  : 5.729e+07 (roughly 14.0 GB of memory)
 Factor Ops : 1.745e+10 (roughly 1 second per iteration)
 Threads    : 6

                  Objective                Residual
Iter       Primal          Dual         Primal    Dual     Compl     Time
   0   2.50827558e+04 -5.96448707e+09  5.42e+02 8.88e-16  3.05e+02  1528s
   1   3.01379517e+04 -2.24990498e+09  1.70e+00 1.10e-14  5.22e+01  1534s
   2   2.85687685e+04 -1.32950228e+07  1.14e-13 8.25e-14  3.08e-01  1542s
   3   8.92224139e+03 -1.08907614e+06  1.14e-13 1.33e-13  2.54e-02  1554s
   4   3.72188420e+03  5.99618655e+02  1.14e-13 8.48e-12  7.22e-05  1562s
   5   8.37829232e+03  3.27523730e+03  1.14e-13 9.81e-11  1.18e-04  1570s
   6   3.71400724e+03  3.34279167e+03  1.14e-13 1.97e-10  8.59e-06  1577s
   7   3.71402560e+03  3.71395982e+03  1.14e-13 1.99e-11  1.52e-09  1586s
   8   3.71400000e+03  3.71400000e+03  1.14e-13 1.19e-11  3.85e-15  1593s

Barrier solved model in 8 iterations and 1592.94 seconds (958.96 work units)
Optimal objective 3.71400000e+03

Warning: insufficient memory, speed may be affected.

Explored 0 nodes (0 simplex iterations) in 1724.14 seconds (875.99 work units)
Thread count was 1 (of 8 available processors)

Solution count 0

Solve interrupted (error code 10001)
Best objective -, best bound -, gap -
Error number: 10001
Message: Out of memory
